\ENCODING=ISO-8859-1
\Problem name: IloCplex

Minimize
 obj: x1 + 2 x2 + 3 x3 + 4 x4 + 5 x5 + 6 x6 + 7 x7 + 8 x8 + x9 + 2 x10 + 3 x11
      + 4 x12 + 5 x13 + 6 x14 + 7 x15 + 8 x16 + x17 + 2 x18 + 3 x19 + 4 x20
      + 5 x21 + 6 x22 + 7 x23 + 8 x24 + x25 + 2 x26 + 3 x27 + 4 x28 + 5 x29
      + 6 x30 + 7 x31 + 8 x32 + x33 + 2 x34 + 3 x35 + 4 x36 + 5 x37 + 6 x38
      + 7 x39 + 8 x40 + x41 + 2 x42 + 3 x43 + 4 x44 + 5 x45 + 6 x46 + 7 x47
      + 8 x48 + x49 + 2 x50 + 3 x51 + 4 x52 + 5 x53 + 6 x54 + 7 x55 + 8 x56
      + x57 + 2 x58 + 3 x59 + 4 x60 + 5 x61 + 6 x62 + 7 x63 + 8 x64
Subject To
 c1:   x1 + x2 + x3 + x4 + x5 + x6 + x7 + x8  = 1
 c2:   x9 + x10 + x11 + x12 + x13 + x14 + x15 + x16  = 1
 c3:   x17 + x18 + x19 + x20 + x21 + x22 + x23 + x24  = 1
 c4:   x25 + x26 + x27 + x28 + x29 + x30 + x31 + x32  = 1
 c5:   x33 + x34 + x35 + x36 + x37 + x38 + x39 + x40  = 1
 c6:   x41 + x42 + x43 + x44 + x45 + x46 + x47 + x48  = 1
 c7:   x49 + x50 + x51 + x52 + x53 + x54 + x55 + x56  = 1
 c8:   x57 + x58 + x59 + x60 + x61 + x62 + x63 + x64  = 1
 c9:   x1 + x9 <= 1
 c10:  x2 + x10 <= 1
 c11:  x3 + x11 <= 1
 c12:  x4 + x12 <= 1
 c13:  x5 + x13 <= 1
 c14:  x6 + x14 <= 1
 c15:  x7 + x15 <= 1
 c16:  x8 + x16 <= 1
 c17:  x1 + x33 <= 1
 c18:  x2 + x34 <= 1
 c19:  x3 + x35 <= 1
 c20:  x4 + x36 <= 1
 c21:  x5 + x37 <= 1
 c22:  x6 + x38 <= 1
 c23:  x7 + x39 <= 1
 c24:  x8 + x40 <= 1
 c25:  x1 + x57 <= 1
 c26:  x2 + x58 <= 1
 c27:  x3 + x59 <= 1
 c28:  x4 + x60 <= 1
 c29:  x5 + x61 <= 1
 c30:  x6 + x62 <= 1
 c31:  x7 + x63 <= 1
 c32:  x8 + x64 <= 1
 c33:  x1 + x9 <= 1
 c34:  x2 + x10 <= 1
 c35:  x3 + x11 <= 1
 c36:  x4 + x12 <= 1
 c37:  x5 + x13 <= 1
 c38:  x6 + x14 <= 1
 c39:  x7 + x15 <= 1
 c40:  x8 + x16 <= 1
 c41:  x9 + x17 <= 1
 c42:  x10 + x18 <= 1
 c43:  x11 + x19 <= 1
 c44:  x12 + x20 <= 1
 c45:  x13 + x21 <= 1
 c46:  x14 + x22 <= 1
 c47:  x15 + x23 <= 1
 c48:  x16 + x24 <= 1
 c49:  x9 + x41 <= 1
 c50:  x10 + x42 <= 1
 c51:  x11 + x43 <= 1
 c52:  x12 + x44 <= 1
 c53:  x13 + x45 <= 1
 c54:  x14 + x46 <= 1
 c55:  x15 + x47 <= 1
 c56:  x16 + x48 <= 1
 c57:  x9 + x17 <= 1
 c58:  x10 + x18 <= 1
 c59:  x11 + x19 <= 1
 c60:  x12 + x20 <= 1
 c61:  x13 + x21 <= 1
 c62:  x14 + x22 <= 1
 c63:  x15 + x23 <= 1
 c64:  x16 + x24 <= 1
 c65:  x17 + x25 <= 1
 c66:  x18 + x26 <= 1
 c67:  x19 + x27 <= 1
 c68:  x20 + x28 <= 1
 c69:  x21 + x29 <= 1
 c70:  x22 + x30 <= 1
 c71:  x23 + x31 <= 1
 c72:  x24 + x32 <= 1
 c73:  x17 + x49 <= 1
 c74:  x18 + x50 <= 1
 c75:  x19 + x51 <= 1
 c76:  x20 + x52 <= 1
 c77:  x21 + x53 <= 1
 c78:  x22 + x54 <= 1
 c79:  x23 + x55 <= 1
 c80:  x24 + x56 <= 1
 c81:  x17 + x25 <= 1
 c82:  x18 + x26 <= 1
 c83:  x19 + x27 <= 1
 c84:  x20 + x28 <= 1
 c85:  x21 + x29 <= 1
 c86:  x22 + x30 <= 1
 c87:  x23 + x31 <= 1
 c88:  x24 + x32 <= 1
 c89:  x25 + x33 <= 1
 c90:  x26 + x34 <= 1
 c91:  x27 + x35 <= 1
 c92:  x28 + x36 <= 1
 c93:  x29 + x37 <= 1
 c94:  x30 + x38 <= 1
 c95:  x31 + x39 <= 1
 c96:  x32 + x40 <= 1
 c97:  x25 + x57 <= 1
 c98:  x26 + x58 <= 1
 c99:  x27 + x59 <= 1
 c100: x28 + x60 <= 1
 c101: x29 + x61 <= 1
 c102: x30 + x62 <= 1
 c103: x31 + x63 <= 1
 c104: x32 + x64 <= 1
 c105: x1 + x33 <= 1
 c106: x2 + x34 <= 1
 c107: x3 + x35 <= 1
 c108: x4 + x36 <= 1
 c109: x5 + x37 <= 1
 c110: x6 + x38 <= 1
 c111: x7 + x39 <= 1
 c112: x8 + x40 <= 1
 c113: x25 + x33 <= 1
 c114: x26 + x34 <= 1
 c115: x27 + x35 <= 1
 c116: x28 + x36 <= 1
 c117: x29 + x37 <= 1
 c118: x30 + x38 <= 1
 c119: x31 + x39 <= 1
 c120: x32 + x40 <= 1
 c121: x33 + x41 <= 1
 c122: x34 + x42 <= 1
 c123: x35 + x43 <= 1
 c124: x36 + x44 <= 1
 c125: x37 + x45 <= 1
 c126: x38 + x46 <= 1
 c127: x39 + x47 <= 1
 c128: x40 + x48 <= 1
 c129: x9 + x41 <= 1
 c130: x10 + x42 <= 1
 c131: x11 + x43 <= 1
 c132: x12 + x44 <= 1
 c133: x13 + x45 <= 1
 c134: x14 + x46 <= 1
 c135: x15 + x47 <= 1
 c136: x16 + x48 <= 1
 c137: x33 + x41 <= 1
 c138: x34 + x42 <= 1
 c139: x35 + x43 <= 1
 c140: x36 + x44 <= 1
 c141: x37 + x45 <= 1
 c142: x38 + x46 <= 1
 c143: x39 + x47 <= 1
 c144: x40 + x48 <= 1
 c145: x41 + x49 <= 1
 c146: x42 + x50 <= 1
 c147: x43 + x51 <= 1
 c148: x44 + x52 <= 1
 c149: x45 + x53 <= 1
 c150: x46 + x54 <= 1
 c151: x47 + x55 <= 1
 c152: x48 + x56 <= 1
 c153: x17 + x49 <= 1
 c154: x18 + x50 <= 1
 c155: x19 + x51 <= 1
 c156: x20 + x52 <= 1
 c157: x21 + x53 <= 1
 c158: x22 + x54 <= 1
 c159: x23 + x55 <= 1
 c160: x24 + x56 <= 1
 c161: x41 + x49 <= 1
 c162: x42 + x50 <= 1
 c163: x43 + x51 <= 1
 c164: x44 + x52 <= 1
 c165: x45 + x53 <= 1
 c166: x46 + x54 <= 1
 c167: x47 + x55 <= 1
 c168: x48 + x56 <= 1
 c169: x49 + x57 <= 1
 c170: x50 + x58 <= 1
 c171: x51 + x59 <= 1
 c172: x52 + x60 <= 1
 c173: x53 + x61 <= 1
 c174: x54 + x62 <= 1
 c175: x55 + x63 <= 1
 c176: x56 + x64 <= 1
 c177: x1 + x57 <= 1
 c178: x2 + x58 <= 1
 c179: x3 + x59 <= 1
 c180: x4 + x60 <= 1
 c181: x5 + x61 <= 1
 c182: x6 + x62 <= 1
 c183: x7 + x63 <= 1
 c184: x8 + x64 <= 1
 c185: x25 + x57 <= 1
 c186: x26 + x58 <= 1
 c187: x27 + x59 <= 1
 c188: x28 + x60 <= 1
 c189: x29 + x61 <= 1
 c190: x30 + x62 <= 1
 c191: x31 + x63 <= 1
 c192: x32 + x64 <= 1
 c193: x49 + x57 <= 1
 c194: x50 + x58 <= 1
 c195: x51 + x59 <= 1
 c196: x52 + x60 <= 1
 c197: x53 + x61 <= 1
 c198: x54 + x62 <= 1
 c199: x55 + x63 <= 1
 c200: x56 + x64 <= 1
Bounds
 0 <= x1 <= 1
 0 <= x2 <= 1
 0 <= x3 <= 1
 0 <= x4 <= 1
 0 <= x5 <= 1
 0 <= x6 <= 1
 0 <= x7 <= 1
 0 <= x8 <= 1
 0 <= x9 <= 1
 0 <= x10 <= 1
 0 <= x11 <= 1
 0 <= x12 <= 1
 0 <= x13 <= 1
 0 <= x14 <= 1
 0 <= x15 <= 1
 0 <= x16 <= 1
 0 <= x17 <= 1
 0 <= x18 <= 1
 0 <= x19 <= 1
 0 <= x20 <= 1
 0 <= x21 <= 1
 0 <= x22 <= 1
 0 <= x23 <= 1
 0 <= x24 <= 1
 0 <= x25 <= 1
 0 <= x26 <= 1
 0 <= x27 <= 1
 0 <= x28 <= 1
 0 <= x29 <= 1
 0 <= x30 <= 1
 0 <= x31 <= 1
 0 <= x32 <= 1
 0 <= x33 <= 1
 0 <= x34 <= 1
 0 <= x35 <= 1
 0 <= x36 <= 1
 0 <= x37 <= 1
 0 <= x38 <= 1
 0 <= x39 <= 1
 0 <= x40 <= 1
 0 <= x41 <= 1
 0 <= x42 <= 1
 0 <= x43 <= 1
 0 <= x44 <= 1
 0 <= x45 <= 1
 0 <= x46 <= 1
 0 <= x47 <= 1
 0 <= x48 <= 1
 0 <= x49 <= 1
 0 <= x50 <= 1
 0 <= x51 <= 1
 0 <= x52 <= 1
 0 <= x53 <= 1
 0 <= x54 <= 1
 0 <= x55 <= 1
 0 <= x56 <= 1
 0 <= x57 <= 1
 0 <= x58 <= 1
 0 <= x59 <= 1
 0 <= x60 <= 1
 0 <= x61 <= 1
 0 <= x62 <= 1
 0 <= x63 <= 1
 0 <= x64 <= 1
Binaries
 x1  x2  x3  x4  x5  x6  x7  x8  x9  x10  x11  x12  x13  x14  x15  x16  x17 
 x18  x19  x20  x21  x22  x23  x24  x25  x26  x27  x28  x29  x30  x31  x32 
 x33  x34  x35  x36  x37  x38  x39  x40  x41  x42  x43  x44  x45  x46  x47 
 x48  x49  x50  x51  x52  x53  x54  x55  x56  x57  x58  x59  x60  x61  x62 
 x63  x64 
End
